(declare-fun v0 () (_ BitVec 10))
(declare-fun v12 () (_ BitVec 9))
(assert
(let (($e26 (_ bv3 2)))
(let (($e31 (_ bv3 8)))
(let (($e84 (concat true  v0)))
(let (($e88 (concat $e26 v12)))
(let (($e89      (bvult $e88        $e84 )         ))
(let (($e91 (concat $e31 $e89)))
(let (($e92 (bvand        v12          $e91 )))
(let (($e761 (concat $e31 true )))
(let (($e762 (bvand $e761 $e92)))
              (ite        $e89    $e92 $e762)
                                                                                                                                                                                                                                                                                                                                                                                                                                                                                                                                                                                                                                                                                                                                                                                                                                                                                                                                                                                                                                                                                                                                                                                                                                                                                                                                                                                                                                                                                                                                                                                                                                                                                                                                                                                                                                                                                                                                                                                                                                                                                                                                                                                                                                                                                                                                                                                                                                                                                                                                                                                                                                                                                                                                                                                                                                                   ))                                                                                                                                                                                                                                                                                                                                                                                                                                                                                                                                                                                                                                                                                            )) ))   )                               )    )                         )
